(set-logic QF_S)
(declare-fun var0 () String)
(declare-fun var1 () String)
(declare-fun var2 () Int)
(declare-fun var3 () Int)
(declare-fun var4 () String)
(declare-fun var5 () String)
(declare-fun var6 () Int)
(declare-fun var7 () Int)
(assert (str.prefixof var0 var1))
(assert (not (<= var2 var3)))
(assert (str.in.re (str.substr var4 (str.indexof var1 var0 var7) (str.indexof (str.substr var5 var7 var6) (str.substr var4 var7 var2) (str.len var4))) (re.+ re.allchar)))
(assert (< var6 var7))
(check-sat)